131765
[438, 434, 435, 436, 437, 433, 402, 407, 408, 410, 409, 424, 425, 423, 426, 429, 432, 431, 421, 422, 411, 412, 406, 405, 395, 396, 397, 392, 393, 394, 383, 382, 381, 371, 370, 372, 373, 374, 380, 390, 391, 398, 340, 341, 342, 343, 283, 282, 227, 228, 225, 226, 185, 148, 82, 83, 84, 281, 280, 229, 224, 187, 188, 186, 230, 231, 279, 284, 285, 286, 339, 287, 346, 345, 344, 375, 376, 378, 379, 388, 389, 413, 420, 419, 418, 292, 291, 290, 289, 288, 347, 348, 349, 350, 351, 352, 353, 354, 355, 356, 357, 358, 369, 359, 338, 337, 336, 335, 334, 333, 332, 331, 330, 329, 302, 303, 301, 300, 271, 270, 269, 268, 267, 304, 305, 266, 265, 264, 263, 307, 306, 308, 309, 310, 321, 320, 319, 318, 317, 316, 430, 428, 427, 417, 416, 404, 403, 401, 399, 415, 414, 400, 387, 386, 385, 384, 377, 367, 366, 368, 362, 363, 364, 365, 361, 360, 293, 294, 295, 296, 297, 298, 299, 272, 273, 274, 275, 276, 277, 278, 328, 327, 326, 325, 324, 323, 322, 311, 312, 313, 314, 315, 257, 258, 256, 255, 254, 253, 251, 252, 208, 250, 249, 209, 210, 211, 212, 213, 214, 215, 197, 196, 195, 194, 193, 192, 191, 183, 190, 189, 223, 222, 232, 233, 221, 234, 235, 236, 237, 238, 239, 240, 241, 242, 243, 244, 245, 246, 247, 248, 259, 260, 261, 262, 216, 217, 218, 219, 220, 182, 181, 153, 154, 155, 156, 157, 158, 137, 138, 139, 140, 141, 142, 151, 150, 149, 152, 180, 179, 178, 177, 176, 198, 199, 200, 201, 202, 204, 205, 206, 207, 170, 171, 173, 172, 203, 174, 175, 160, 159, 161, 133, 134, 135, 136, 167, 169, 168, 165, 164, 166, 163, 162, 128, 126, 125, 123, 124, 122, 100, 99, 94, 95, 97, 96, 132, 131, 130, 129, 127, 98, 121, 120, 118, 117, 115, 119, 116, 114, 102, 101, 103, 90, 69, 70, 71, 87, 88, 89, 68, 67, 66, 65, 64, 21, 184, 144, 147, 146, 145, 111, 110, 109, 143, 107, 108, 106, 105, 104, 112, 113, 20, 19, 18, 17, 93, 92, 91, 23, 22, 24, 63, 25, 26, 28, 27, 73, 72, 62, 29, 30, 31, 61, 60, 75, 74, 59, 58, 76, 77, 85, 86, 57, 56, 78, 79, 80, 81, 55, 54, 53, 52, 50, 51, 1, 2, 0, 3, 4, 5, 6, 7, 8, 9, 10, 39, 40, 42, 44, 45, 48, 46, 47, 49, 43, 41, 38, 37, 36, 35, 34, 33, 32, 16, 15, 14, 13, 12, 11]
